%%%mzn-stat: initTime=0.004959028
%%%mzn-stat: objective=918
%%%mzn-stat: nodes=12586
%%%mzn-stat: restarts=12
%%%mzn-stat: peakDepth=184
%%%mzn-stat: solveTime=2.87137568
%%%mzn-stat: variables=469
%%%mzn-stat: propagators=1520
%%%mzn-stat: failures=10677
%%%mzn-stat: propagations=3193940
%%%mzn-stat: nogoods=10677
%%%mzn-stat: AverageConflictSize=37.42230963753863
%%%mzn-stat: NumUnitNogoodsLearned=697
%%%mzn-stat: AverageLearnedNogoodLength=32.907370984358906
%%%mzn-stat: AverageBacktrackAmount=0
%%%mzn-stat: AverageLbd=13.884799100871032
%%%mzn-stat-end
maxleg = 918;
succ = array1d(1..50,[49, 29, 32, 5, 47, 50, 2, 37, 6, 43, 33, 42, 9, 46, 25, 22, 16, 48, 34, 23, 1, 7, 24, 17, 36, 35, 30, 45, 14, 4, 11, 41, 19, 18, 31, 44, 12, 27, 10, 15, 21, 28, 38, 13, 39, 8, 3, 40, 26, 20]);
% time elapsed: 4.24 s
----------
==========
% time elapsed: 4.25 s
%%%mzn-stat: initTime=0.004959028
%%%mzn-stat: objective=918
%%%mzn-stat: nodes=12919
%%%mzn-stat: restarts=12
%%%mzn-stat: peakDepth=184
%%%mzn-stat: solveTime=2.89028548
%%%mzn-stat: variables=469
%%%mzn-stat: propagators=1520
%%%mzn-stat: failures=10774
%%%mzn-stat: propagations=3231264
%%%mzn-stat: nogoods=10774
%%%mzn-stat: AverageConflictSize=37.12168182661964
%%%mzn-stat: NumUnitNogoodsLearned=698
%%%mzn-stat: AverageLearnedNogoodLength=32.68470391683683
%%%mzn-stat: AverageBacktrackAmount=0
%%%mzn-stat: AverageLbd=13.803786894375348
%%%mzn-stat-end
